solution status: optimal solution found
objective value:                                 2543
C158                                                1 	(obj:171)
C162                                                1 	(obj:162)
C164                                                1 	(obj:69)
C165                                                1 	(obj:69)
C167                                                1 	(obj:183)
C170                                                1 	(obj:49)
C174                                                1 	(obj:250)
C178                                                1 	(obj:159)
C179                                                1 	(obj:318)
C182                                                1 	(obj:159)
C183                                                1 	(obj:318)
C185                                                1 	(obj:318)
C189                                                1 	(obj:318)
